1453279
3,14,103,57,53,101,104,98,86,92,16,52,99,21,63,23,108,89,44,81,0,4,34,97,100,33,51,82,2,62,42,84,60,31,94,5,29,55,47,79,20,12,95,61,18,72,75,49,17,11,35,27,7,39,67,54,105,32,77,107,41,59,64,87,6,70,46,96,88,90,10,48,30,38,13,69,68,26,85,74,56,71,37,40,25,36,8,76,65,9,22,73,91,102,43,24,28,15,106,93,45,58,83,50,1,80,19,78,66,3